! Benzene optimization
 $CONTRL SCFTYP=RHF RUNTYP=OPTIMIZE ISPHER=1 $END
 $SYSTEM MWORDS=200 $END
 $BASIS GBASIS=N311 NGAUSS=6 NDFUNC=1 $END
 $STATPT OPTTOL=0.0001 NSTEP=100 $END
 $SCF DIRSCF=.TRUE. $END
 $DATA
Benzene geometry optimization
Dnh 6

C      6.0      1.395000      0.000000      0.000000
H      1.0      2.475000      0.000000      0.000000
 $END
