! Formaldehyde TDDFT excited states
 $CONTRL SCFTYP=RHF RUNTYP=ENERGY TDDFT=EXCITE DFTTYP=B3LYP $END
 $SYSTEM MWORDS=200 $END
 $BASIS GBASIS=N311 NGAUSS=6 NDFUNC=1 $END
 $TDDFT NSTATE=5 IROOT=1 MULT=1 $END
 $SCF DIRSCF=.TRUE. $END
 $DATA
Formaldehyde excited state
Cs

C      6.0      0.000000      0.000000      0.000000
O      8.0      0.000000      1.200000      0.000000
H      1.0      0.940000     -0.540000      0.000000
H      1.0     -0.940000     -0.540000      0.000000
 $END
