! Water SCF calculation
 $CONTRL SCFTYP=RHF RUNTYP=ENERGY ISPHER=1 $END
 $SYSTEM MWORDS=100 MEMDDI=1000 $END
 $BASIS GBASIS=N31 NGAUSS=6 NDFUNC=1 $END
 $SCF DIRSCF=.TRUE. $END
 $DATA
Water molecule
Cnv 2

O      8.0      0.000000      0.000000      0.000000
H      1.0      0.758602      0.000000      0.504284
H      1.0      0.758602      0.000000     -0.504284
 $END
