System = Si diamond
ENCUT = 520
EDIFF = 1E-6
EDIFFG = -0.01
IBRION = 2
ISIF = 3
NSW = 100
ISMEAR = 0
SIGMA = 0.05
LCHARG = .FALSE.
LWAVE = .FALSE.
