Si diamond structure
5.4300000000
0.5000000000    0.5000000000    0.0000000000
0.0000000000    0.5000000000    0.5000000000
0.5000000000    0.0000000000    0.5000000000
Si
2
Direct
0.000000000    0.000000000    0.000000000
0.250000000    0.250000000    0.250000000
