%chk=benzene_sp.chk
%mem=4GB
%nproc=8
# M062X/def2TZVP SP SCRF=(SMD,Solvent=Water)

Benzene single point in water

0 1
C   1.395000  0.000000  0.000000
C   0.697500  1.208110  0.000000
C  -0.697500  1.208110  0.000000
C  -1.395000  0.000000  0.000000
C  -0.697500 -1.208110  0.000000
C   0.697500 -1.208110  0.000000
H   2.475000  0.000000  0.000000
H   1.237500  2.143428  0.000000
H  -1.237500  2.143428  0.000000
H  -2.475000  0.000000  0.000000
H  -1.237500 -2.143428  0.000000
H   1.237500 -2.143428  0.000000

