%chk=water_opt.chk
%mem=2GB
%nproc=4
# B3LYP/6-31G(d) Opt Freq

Water geometry optimization and frequency calculation

0 1
O   0.000000  0.000000  0.000000
H   0.758602  0.000000  0.504284
H   0.758602  0.000000 -0.504284

