title "Benzene DFT optimization"

start benzene_dft

memory 4 gb

geometry
  C   1.395000  0.000000  0.000000
  C   0.697500  1.208110  0.000000
  C  -0.697500  1.208110  0.000000
  C  -1.395000  0.000000  0.000000
  C  -0.697500 -1.208110  0.000000
  C   0.697500 -1.208110  0.000000
  H   2.475000  0.000000  0.000000
  H   1.237500  2.143428  0.000000
  H  -1.237500  2.143428  0.000000
  H  -2.475000  0.000000  0.000000
  H  -1.237500 -2.143428  0.000000
  H   1.237500 -2.143428  0.000000
end

basis
  * library 6-311G**
end

dft
  xc b3lyp
  maxiter 100
end
task dft optimize
