! B3LYP def2-SVP Opt Freq

* xyz 0 1
Si  0.000000  0.000000  0.000000
Si  0.000000  0.000000  2.350000
*
