Si diamond structure
   5.43
     0.500000   0.500000   0.000000
     0.000000   0.500000   0.500000
     0.500000   0.000000   0.500000
Si
   2
Direct
  0.000000   0.000000   0.000000
  0.250000   0.250000   0.250000
