Si_dimer
1.0
5.43 0.00 0.00
0.00 5.43 0.00
0.00 0.00 5.43
Si
2
direct
0.000000 0.000000 0.000000
0.250000 0.250000 0.250000
