# Methane optimization
@SET PROJECT_NAME CH4_opt

&GLOBAL
  PROJECT ${PROJECT_NAME}
  RUN_TYPE GEO_OPT
  PRINT_LEVEL MEDIUM
&END GLOBAL

&MOTION
  &GEO_OPT
    OPTIMIZER BFGS
    MAX_FORCE 1.0E-4
    MAX_ITER 200
  &END GEO_OPT
&END MOTION

&FORCE_EVAL
  METHOD Quickstep
  
  &DFT
    BASIS_SET_FILE_NAME BASIS_MOLOPT
    POTENTIAL_FILE_NAME POTENTIAL
    
    &MGRID
      CUTOFF 400
    &END MGRID
    
    &SCF
      SCF_GUESS ATOMIC
      EPS_SCF 1.0E-6
      MAX_SCF 50
    &END SCF
    
    &XC
      &XC_FUNCTIONAL BLYP
      &END XC_FUNCTIONAL
    &END XC
  &END DFT
  
  &SUBSYS
    &CELL
      ABC 12.0 12.0 12.0
      PERIODIC NONE
    &END CELL
    
    &COORD
      C    0.000000  0.000000  0.000000
      H    0.629118  0.629118  0.629118
      H   -0.629118 -0.629118  0.629118
      H   -0.629118  0.629118 -0.629118
      H    0.629118 -0.629118 -0.629118
    &END COORD
    
    &KIND H
      BASIS_SET DZVP-MOLOPT-GTH
      POTENTIAL GTH-BLYP-q1
    &END KIND
    
    &KIND C
      BASIS_SET DZVP-MOLOPT-GTH
      POTENTIAL GTH-BLYP-q4
    &END KIND
  &END SUBSYS
&END FORCE_EVAL
