# Water molecule single point calculation
@SET PROJECT_NAME H2O_SP

&GLOBAL
  PROJECT ${PROJECT_NAME}
  RUN_TYPE ENERGY
  PRINT_LEVEL MEDIUM
&END GLOBAL

&FORCE_EVAL
  METHOD Quickstep
  
  &DFT
    BASIS_SET_FILE_NAME BASIS_MOLOPT
    POTENTIAL_FILE_NAME POTENTIAL
    
    &MGRID
      CUTOFF 400
      REL_CUTOFF 50
    &END MGRID
    
    &QS
      EPS_DEFAULT 1.0E-12
    &END QS
    
    &SCF
      SCF_GUESS ATOMIC
      EPS_SCF 1.0E-6
      MAX_SCF 50
      &OT ON
        MINIMIZER DIIS
        PRECONDITIONER FULL_ALL
      &END OT
    &END SCF
    
    &XC
      &XC_FUNCTIONAL PBE
      &END XC_FUNCTIONAL
    &END XC
  &END DFT
  
  &SUBSYS
    &CELL
      ABC 10.0 10.0 10.0
      PERIODIC NONE
    &END CELL
    
    &COORD
      O   0.000000  0.000000  0.000000
      H   0.758602  0.000000  0.504284
      H   0.758602  0.000000 -0.504284
    &END COORD
    
    &KIND H
      BASIS_SET DZVP-MOLOPT-GTH
      POTENTIAL GTH-PBE-q1
    &END KIND
    
    &KIND O
      BASIS_SET DZVP-MOLOPT-GTH
      POTENTIAL GTH-PBE-q1
    &END KIND
  &END SUBSYS
&END FORCE_EVAL
