# Silicon bulk DFT calculation
@SET PROJECT_NAME Si_bulk

&GLOBAL
  PROJECT ${PROJECT_NAME}
  RUN_TYPE ENERGY
  PRINT_LEVEL MEDIUM
&END GLOBAL

&FORCE_EVAL
  METHOD Quickstep
  
  &DFT
    BASIS_SET_FILE_NAME BASIS_MOLOPT
    POTENTIAL_FILE_NAME POTENTIAL
    
    &MGRID
      CUTOFF 600
      REL_CUTOFF 60
    &END MGRID
    
    &QS
      EPS_DEFAULT 1.0E-12
    &END QS
    
    &SCF
      SCF_GUESS RESTART
      EPS_SCF 1.0E-7
      MAX_SCF 100
    &END SCF
    
    &KPOINTS
      SCHEME MONKHORST-PACK 4 4 4
    &END KPOINTS
    
    &XC
      &XC_FUNCTIONAL PBE
      &END XC_FUNCTIONAL
    &END XC
  &END DFT
  
  &SUBSYS
    &CELL
      A 5.43 0.00 0.00
      B 0.00 5.43 0.00
      C 0.00 0.00 5.43
    &END CELL
    
    &TOPOLOGY
      COORD_FILE_NAME silicon.xyz
      COORD_FILE_FORMAT XYZ
    &END TOPOLOGY
    
    &KIND Si
      BASIS_SET DZVP-MOLOPT-GTH
      POTENTIAL GTH-PBE-q4
    &END KIND
  &END SUBSYS
&END FORCE_EVAL
