! RKS PBE0 def2-TZVP TightSCF
! CPCM(Water)
! Opt Freq

%pal nprocs 12 end
%maxcore 3000

%cpcm
  epsilon 78.39
  refrac  1.33
end

* xyz 0 1
C   1.395000  0.000000  0.000000
C   0.697500  1.208110  0.000000
C  -0.697500  1.208110  0.000000
C  -1.395000  0.000000  0.000000
C  -0.697500 -1.208110  0.000000
C   0.697500 -1.208110  0.000000
H   2.475000  0.000000  0.000000
H   1.237500  2.143428  0.000000
H  -1.237500  2.143428  0.000000
H  -2.475000  0.000000  0.000000
H  -1.237500 -2.143428  0.000000
H   1.237500 -2.143428  0.000000
*
