! B3LYP def2-SVP Opt
! RIJCOSX def2/J

%pal nprocs 4 end
%maxcore 2000

* xyz 0 1
O   0.000000  0.000000  0.000000
H   0.758602  0.000000  0.504284
H   0.758602  0.000000 -0.504284
*
