! B3LYP def2-SVP Opt TightSCF D3BJ
%pal nprocs 8 end
%maxcore 2000
%geom
  Constraints
    { C6 }
  end
end

* xyz 0 1
C    -0.189003    1.215525    0.000000
C     1.165227    1.215525    0.000000
C     1.842592    0.000000    0.000000
C     1.165227   -1.215525    0.000000
C    -0.189003   -1.215525    0.000000
C    -0.866368    0.000000    0.000000
O    -0.929474    2.322107    0.000000
H     1.721690    2.156478    0.000000
H     2.931738    0.000000    0.000000
H     1.721690   -2.156478    0.000000
H    -0.745466   -2.156478    0.000000
H    -0.281285    3.202397    0.000000
*
