&CONTROL
    calculation = 'scf'
    restart_mode = 'from_scratch'
    pseudo_dir = './pseudo/'
    outdir = './tmp/'
    tprnfor = .false.
    tstress = .false.
/
&SYSTEM
    ibrav = 2
    celldm(1) = 10.26
    nat = 2
    ntyp = 1
    ecutwfc = 60.0
    ecutrho = 480.0
/
&ELECTRONS
    conv_thr = 1.0d-8
    mixing_beta = 0.7
/
ATOMIC_SPECIES
Si 28.086 Si.pbe-n-rrkjus_psl.1.0.0.UPF
ATOMIC_POSITIONS crystal
Si 0.00 0.00 0.00
Si 0.25 0.25 0.25
K_POINTS automatic
8 8 8 0 0 0
