&CONTROL
  calculation = 'bands'
  prefix = 'si_bands'
  outdir = './tmp/'
  pseudo_dir = './pseudo/'
/

&SYSTEM
  ibrav = 2
  celldm(1) = 10.26
  nat = 2
  ntyp = 1
  ecutwfc = 40
  ecutrho = 320
  nbnd = 8
/

&ELECTRONS
  conv_thr = 1.0d-8
/

ATOMIC_SPECIES
 Si 28.0855 Si.pbe-n-kjpaw_psl.1.0.0.UPF

ATOMIC_POSITIONS alat
 Si 0.00 0.00 0.00
 Si 0.25 0.25 0.25

K_POINTS crystal_b
6
  0.000  0.000  0.000  20  # Gamma
  0.500  0.000  0.500  20  # X
  0.625  0.250  0.625  20  # U
  0.375  0.375  0.750  20  # K
  0.000  0.000  0.000  20  # Gamma
  0.500  0.500  0.500  20  # L
