&CONTROL
  calculation = 'scf'
  prefix = 'si_scf'
  outdir = './tmp/'
  pseudo_dir = './pseudo/'
  tprnfor = .true.
  tstress = .true.
/

&SYSTEM
  ibrav = 2
  celldm(1) = 10.26
  nat = 2
  ntyp = 1
  ecutwfc = 40
  ecutrho = 320
  occupations = 'smearing'
  smearing = 'mp'
  degauss = 0.02
/

&ELECTRONS
  conv_thr = 1.0d-8
  mixing_beta = 0.7
/

ATOMIC_SPECIES
 Si 28.0855 Si.pbe-n-kjpaw_psl.1.0.0.UPF

ATOMIC_POSITIONS alat
 Si 0.00 0.00 0.00
 Si 0.25 0.25 0.25

K_POINTS automatic
6 6 6 0 0 0
