%nprocshared=8
%mem=16GB
#p B3LYP/6-31G(d) Opt Freq

Si2 molecule optimization

0 1
Si  0.000000  0.000000  0.000000
Si  0.000000  0.000000  2.350000

